&INPUTPH
    tr2_ph = 1.0d-18
    ldisp = .true.
    {% raw %}
    start_q = {{MAP_DATA.qpoint}}
    last_q = {{MAP_DATA.qpoint}}
    start_irr = {{MAP_DATA.irr}}
    last_irr= {{MAP_DATA.irr}}
    {% endraw %}
    recover = .true.
    fildyn = 'dyn'
    prefix = '__prefix__'
    outdir = {% raw %}'{{ JOB_SCRATCH_DIR }}/outdir'{% endraw %}
    {% for d in qgrid.dimensions -%}
    nq{{loop.index}} = {{d}}
    {% endfor %}
/
