&PROJWFC
    prefix = '__prefix__'
    outdir = {% raw %}'{{ JOB_WORK_DIR }}/outdir'{% endraw %}
    degauss = 0.01
    deltaE = 0.05
/
