&CONTROL
    calculation = 'nscf'
    title = ''
    verbosity = 'low'
    restart_mode = '{{input.RESTART_MODE}}'
    wf_collect = .true.
    tstress = .true.
    tprnfor = .true.
    outdir = {% raw %}'{{ JOB_WORK_DIR }}/outdir'{% endraw %}
    wfcdir = {% raw %}'{{ JOB_WORK_DIR }}/outdir'{% endraw %}
    prefix = '__prefix__'
    pseudo_dir = {% raw %}'{{ JOB_WORK_DIR }}/pseudo'{% endraw %}
/
&SYSTEM
    ibrav = {{ input.IBRAV }}
    nat = {{ input.NAT }}
    ntyp = {{ input.NTYP_WITH_LABELS }}
    nspin = 2
    ecutwfc = {{ cutoffs.wavefunction }}
    ecutrho = {{ cutoffs.density }}
    occupations = 'smearing'
    degauss = 0.005
    lda_plus_u = .true.
    lda_plus_u_kind = 0
    U_projection_type = 'ortho-atomic'
    {%- for row in hubbard_legacy %}
    Hubbard_U({{ row.atomicSpeciesIndex }}) = {{ row.hubbardUValue }}
    {%- endfor %}
{%- if collinearMagnetization.isTotalMagnetization %}
    tot_magnetization = {{ collinearMagnetization.totalMagnetization }}
{%- else %}
{%- for item in collinearMagnetization.startingMagnetization %}
    starting_magnetization({{ item.index }}) = {{ item.value }} {% endfor -%}
{%- endif %}
{%- if subworkflowContext.NO_SYMMETRY_NO_INVERSION %}
    nosym = .true.
    noinv = .true.
{%- endif %}
/
&ELECTRONS
    diagonalization = 'david'
    diago_david_ndim = 4
    diago_full_acc = .true.
    mixing_beta = 0.3
/
&IONS
/
&CELL
/
ATOMIC_SPECIES
{{ input.ATOMIC_SPECIES_WITH_LABELS }}
ATOMIC_POSITIONS crystal
{{ input.ATOMIC_POSITIONS }}
CELL_PARAMETERS angstrom
{{ input.CELL_PARAMETERS }}
K_POINTS automatic
{% for d in kgrid.dimensions %}{{d}} {% endfor %}{% for s in kgrid.shifts %}{{s}} {% endfor %}
