&INPUT
    fildyn = 'dyn'
    zasr = 'simple'
    flfrc = 'force_constants.fc'
/
