"""
@generated by mypy-protobuf.  Do not edit manually!
isort:skip_file
"""
import ansys.api.discovery.v1.commonmessages_pb2
import ansys.api.discovery.v1.physics.physicsmessages_pb2
import builtins
import google.protobuf.descriptor
import google.protobuf.internal.containers
import google.protobuf.message
import typing
import typing_extensions

DESCRIPTOR: google.protobuf.descriptor.FileDescriptor = ...

class GetAllInputsRequest(google.protobuf.message.Message):
    DESCRIPTOR: google.protobuf.descriptor.Descriptor = ...
    VARIATION_ID_FIELD_NUMBER: builtins.int
    SIMULATION_ID_FIELD_NUMBER: builtins.int
    @property
    def variation_id(self) -> ansys.api.discovery.v1.commonmessages_pb2.GuidEntityIdentifier: ...
    @property
    def simulation_id(self) -> ansys.api.discovery.v1.commonmessages_pb2.GuidEntityIdentifier: ...
    def __init__(self,
        *,
        variation_id : typing.Optional[ansys.api.discovery.v1.commonmessages_pb2.GuidEntityIdentifier] = ...,
        simulation_id : typing.Optional[ansys.api.discovery.v1.commonmessages_pb2.GuidEntityIdentifier] = ...,
        ) -> None: ...
    def HasField(self, field_name: typing_extensions.Literal["simulation_id",b"simulation_id","variation_id",b"variation_id"]) -> builtins.bool: ...
    def ClearField(self, field_name: typing_extensions.Literal["simulation_id",b"simulation_id","variation_id",b"variation_id"]) -> None: ...
global___GetAllInputsRequest = GetAllInputsRequest

class GetAllInputsResponse(google.protobuf.message.Message):
    DESCRIPTOR: google.protobuf.descriptor.Descriptor = ...
    INPUT_PARAMETERS_FIELD_NUMBER: builtins.int
    @property
    def input_parameters(self) -> google.protobuf.internal.containers.RepeatedCompositeFieldContainer[ansys.api.discovery.v1.physics.physicsmessages_pb2.InputParameter]: ...
    def __init__(self,
        *,
        input_parameters : typing.Optional[typing.Iterable[ansys.api.discovery.v1.physics.physicsmessages_pb2.InputParameter]] = ...,
        ) -> None: ...
    def ClearField(self, field_name: typing_extensions.Literal["input_parameters",b"input_parameters"]) -> None: ...
global___GetAllInputsResponse = GetAllInputsResponse

class GetAllOutputsRequest(google.protobuf.message.Message):
    DESCRIPTOR: google.protobuf.descriptor.Descriptor = ...
    VARIATION_ID_FIELD_NUMBER: builtins.int
    SIMULATION_ID_FIELD_NUMBER: builtins.int
    @property
    def variation_id(self) -> ansys.api.discovery.v1.commonmessages_pb2.GuidEntityIdentifier: ...
    @property
    def simulation_id(self) -> ansys.api.discovery.v1.commonmessages_pb2.GuidEntityIdentifier: ...
    def __init__(self,
        *,
        variation_id : typing.Optional[ansys.api.discovery.v1.commonmessages_pb2.GuidEntityIdentifier] = ...,
        simulation_id : typing.Optional[ansys.api.discovery.v1.commonmessages_pb2.GuidEntityIdentifier] = ...,
        ) -> None: ...
    def HasField(self, field_name: typing_extensions.Literal["simulation_id",b"simulation_id","variation_id",b"variation_id"]) -> builtins.bool: ...
    def ClearField(self, field_name: typing_extensions.Literal["simulation_id",b"simulation_id","variation_id",b"variation_id"]) -> None: ...
global___GetAllOutputsRequest = GetAllOutputsRequest

class GetAllOutputsResponse(google.protobuf.message.Message):
    DESCRIPTOR: google.protobuf.descriptor.Descriptor = ...
    OUTPUT_PARAMETERS_FIELD_NUMBER: builtins.int
    @property
    def output_parameters(self) -> google.protobuf.internal.containers.RepeatedCompositeFieldContainer[ansys.api.discovery.v1.physics.physicsmessages_pb2.OutputParameter]: ...
    def __init__(self,
        *,
        output_parameters : typing.Optional[typing.Iterable[ansys.api.discovery.v1.physics.physicsmessages_pb2.OutputParameter]] = ...,
        ) -> None: ...
    def ClearField(self, field_name: typing_extensions.Literal["output_parameters",b"output_parameters"]) -> None: ...
global___GetAllOutputsResponse = GetAllOutputsResponse

class SetInputValueRequest(google.protobuf.message.Message):
    DESCRIPTOR: google.protobuf.descriptor.Descriptor = ...
    VARIATION_ID_FIELD_NUMBER: builtins.int
    SIMULATION_ID_FIELD_NUMBER: builtins.int
    INPUT_PARAMETER_LABEL_FIELD_NUMBER: builtins.int
    VALUE_FIELD_NUMBER: builtins.int
    MATERIAL_FIELD_NUMBER: builtins.int
    @property
    def variation_id(self) -> ansys.api.discovery.v1.commonmessages_pb2.GuidEntityIdentifier: ...
    @property
    def simulation_id(self) -> ansys.api.discovery.v1.commonmessages_pb2.GuidEntityIdentifier: ...
    input_parameter_label: typing.Text = ...
    @property
    def value(self) -> ansys.api.discovery.v1.commonmessages_pb2.Quantity: ...
    @property
    def material(self) -> ansys.api.discovery.v1.physics.physicsmessages_pb2.ParameterMaterial: ...
    def __init__(self,
        *,
        variation_id : typing.Optional[ansys.api.discovery.v1.commonmessages_pb2.GuidEntityIdentifier] = ...,
        simulation_id : typing.Optional[ansys.api.discovery.v1.commonmessages_pb2.GuidEntityIdentifier] = ...,
        input_parameter_label : typing.Text = ...,
        value : typing.Optional[ansys.api.discovery.v1.commonmessages_pb2.Quantity] = ...,
        material : typing.Optional[ansys.api.discovery.v1.physics.physicsmessages_pb2.ParameterMaterial] = ...,
        ) -> None: ...
    def HasField(self, field_name: typing_extensions.Literal["material",b"material","simulation_id",b"simulation_id","value",b"value","variation_id",b"variation_id"]) -> builtins.bool: ...
    def ClearField(self, field_name: typing_extensions.Literal["input_parameter_label",b"input_parameter_label","material",b"material","simulation_id",b"simulation_id","value",b"value","variation_id",b"variation_id"]) -> None: ...
global___SetInputValueRequest = SetInputValueRequest

class SetInputValueResponse(google.protobuf.message.Message):
    DESCRIPTOR: google.protobuf.descriptor.Descriptor = ...
    INPUT_FIELD_NUMBER: builtins.int
    @property
    def input(self) -> ansys.api.discovery.v1.physics.physicsmessages_pb2.InputParameter: ...
    def __init__(self,
        *,
        input : typing.Optional[ansys.api.discovery.v1.physics.physicsmessages_pb2.InputParameter] = ...,
        ) -> None: ...
    def HasField(self, field_name: typing_extensions.Literal["input",b"input"]) -> builtins.bool: ...
    def ClearField(self, field_name: typing_extensions.Literal["input",b"input"]) -> None: ...
global___SetInputValueResponse = SetInputValueResponse
