SAMBA Cr_S_Br_Cr_S_Br+B_N_C 60 96 | mismatch_areas_12_21 = 0.3236_-0.3225 | var_areas = 0.2021_-0.1211 | var_vectors = 1.153_-1.2897_-1.1965_1.2604 | mismatch_angles_12_21 = -0.1423_0.1425| var_angles = -0.096_0.0464 | rotation_angle = 102.3429 | MSCell_1 = -1_4_-1_-1 | MSCell_2 = -3_-4_0_0 | MDeform_1 = 1.050867865_0.069769683_-0.029541886_0.951556296 | MDeform_2 = 0.950099808_-0.069544642_0.029446599_1.049091049 | MSTrain_1 = 0.052597996_0.022603975_0.022603975_-0.044836403 | MSTrain_2 = -0.048221627_-0.017591093_-0.017591093_0.052714243 | Shift_plane = 0.6666666666666666_0.8333333333333334 | none BNC2+C2_c8b5dd1e203c4310+0002 Cr2S2Br2Cr2S2Br2+BNC4_6150655c5bdde5ad+0004
   1.00000000000000
   -14.2848791339220007   -3.9742969419600001    0.0000000000000000
     9.4427924565130006   -3.2698878045819999    0.0000000000000000
     0.0000000000000000    0.0000000000000000   36.7872736853993203
   Cr   S    Br   Cr   S    Br   B    N    C
    10    10    10    10    10    10    16    16    64
Cartesian 
-2.940654521058744 -5.419408950477399 9.256828888639195 
-7.3918008676045455 -5.273183170074959 9.239480104210562 
2.5801316271768138 -1.884912213632383 9.244864484306502 
-1.8965402385271948 -1.809980179894191 9.261351920423513 
-7.12570993190765 -2.087178018703364 9.291244507512411 
4.209934962990092 -3.467881769071635 10.594587311056419 
-0.27885023970306033 -3.3896064728348105 10.589289546825642 
-4.61061134361999 -3.9165460437234767 10.576475408077817 
-9.054806331892545 -3.8138210490670463 10.593339343313703 
0.002643270484627383 0.03881737781824887 10.576416252355342 
7.112843334068692 -3.3119214754346094 10.60399509202074 
2.0854456067897535 -3.5132154951801304 10.803969217337473 
-2.4250731269176438 -3.607905339605338 10.55894643992347 
-6.942891366759456 -3.7446327052724313 10.9081548543375 
-11.954720726965876 -3.9300490631952303 10.602494295136017 
-0.01806359052346096 -5.334480755627123 9.23703145726632 
-5.053419087389971 -5.489583362828258 8.95359935121251 
4.7408465095379135 -1.6656127077839462 9.341992556254338 
0.22161376049224746 -1.7781767622539606 9.024875900428848 
-4.808367138160751 -1.9347384574997928 9.235221941383807 
7.078567869820191 -3.3673686453374154 7.5080348498374985 
2.4599491013275836 -3.563395649768145 7.38822585177054 
-2.4073226096662728 -3.622472240872745 7.531738820943222 
-7.310551254127143 -3.6898575745186264 7.366384880657738 
-11.907792391302554 -3.8778718180096154 7.495114289929774 
-0.06110850569955595 -5.375481234935096 12.36704128211781 
-4.7321895255509325 -5.548178532346608 12.453087352727024 
4.708271878841512 -1.6416427417991544 12.351575359164604 
-0.10329589791587734 -1.7179165138271317 12.439930662451738 
-4.786753191318349 -1.879628168305952 12.3839644223425 
-2.7868898504151867 -5.6382940626303615 16.202741617504483 
-7.28113268731702 -5.77701638836462 16.243821342971838 
2.0673422184055674 -1.4851667444991725 16.243743728689697 
-2.52476875188948 -1.5683151252012728 16.271574402506324 
-7.509030385581556 -2.0042280503515535 16.308105056415584 
4.787241561212381 -3.3981032798496353 17.55900829868724 
0.3017288080767777 -3.5592148101442524 17.580504051187475 
-4.526870400371759 -4.024627535478341 17.543771768290007 
-9.118311532038549 -3.7235478348385938 17.570252491413278 
0.15192487594761 0.1446699296569685 17.58833866696224 
7.047732875500534 -3.3108414151206635 17.964514510756693 
2.489334257624467 -3.523996841021628 17.648819686873264 
-2.454603486362309 -3.7483747847561832 17.58496995204337 
-6.920452035350525 -3.686403605188267 17.734862517340098 
-11.947113968928491 -3.91299888292872 17.877308378507326 
-0.3061039148264406 -5.2667279975197685 16.157784934762194 
-4.961976473883439 -5.563081172265852 15.933971299517081 
4.748405122185339 -1.51360073196158 16.289818876265308 
-0.13894220505332644 -1.8217957471142787 16.177353484069705 
-4.741750720683908 -1.988808454330234 16.262334784184063 
6.971262815584561 -3.36717692487154 14.407189455212722 
2.302082180919742 -3.467275716004144 14.550994483934954 
-2.451656809791385 -3.6328583051723333 14.523934287287723 
-7.183551250147026 -3.7443154492197475 14.544675812924096 
-11.90526219703464 -3.9418467394069356 14.396252884077983 
-0.07841033266961084 -5.3102366607126985 19.364586125984733 
-4.787910449431131 -5.464175319034147 19.46225482828638 
4.6986632515849145 -1.5574533321420905 19.387645768503255 
-0.0541379579625878 -1.8397156415267368 19.33750145742525 
-4.72684617125307 -1.9390083869847856 19.369551556208854 
1.1181965446194608 -4.853225987472284 29.22104097408316 
-5.9639791795990496 -2.4008571543552963 29.22229826431535 
5.279776609430172 -4.064868491287315 29.221294943517414 
-3.603176201302907 -3.2183685168766543 29.221486927028273 
-1.8023209596579925 -1.6124333727519207 29.22006440668525 
-0.0018609454218173989 -0.0049926984833911295 29.22102088881611 
-1.24257589498961 -4.035754482955993 29.220257720559704 
0.5584269058482314 -2.429891044442111 29.21916003334418 
2.358882842549506 -0.8223940129393174 29.220952445968713 
-10.125106184386569 -3.1908733261256352 29.219471493334918 
2.919084241252612 -3.2474095567504517 29.22059549670027 
4.7195562825193225 -1.6399015177797616 29.222351254625412 
-7.764379076137079 -4.008323387754101 29.220746118428156 
7.080271074956927 -2.457377148928308 29.222585524932647 
-5.403746002656736 -4.825787070018455 29.220456976603174 
-3.0429253258576976 -5.643270655539556 29.219157526072127 
-1.6476287884704668 -5.392321906535603 29.21694892494488 
-8.729767331148695 -2.9399136526212764 29.218061764532173 
2.513621492531094 -4.603327983896499 29.2189671723479 
-6.3690844710183105 -3.7573595550399244 29.219204970975348 
-4.568550171668821 -2.150961438116932 29.219340724671177 
6.675152261605446 -3.813935450163876 29.2194608005425 
-4.008347420093368 -4.574915462882005 29.217939429368627 
-2.207762142704247 -2.968354151192121 29.217928990524793 
-0.40700821632543893 -1.3615271996443687 29.217485562230554 
-12.891265653470558 -3.729296974208959 29.2175579173189 
0.15285180762954287 -3.7858299654318937 29.21721590883717 
1.953784308942295 -2.1789728143031257 29.21787821321086 
-10.530611067272213 -4.546774265813999 29.218402249065587 
4.314349218498627 -2.9964517856058923 29.219588806143253 
-8.169885625519438 -5.3642666462615685 29.219735987552372 
-5.809214335738778 -6.18174234826725 29.218859823599484 
1.1349560580971678 -4.832644358775871 26.083162039483366 
-5.947785660929313 -2.380789613902238 26.084223069214868 
5.299433207383145 -4.049645859805596 26.08771307170655 
-3.5871404558138376 -3.1978622228091154 26.08259281851391 
-1.7830895739037684 -1.5968791762924672 26.08272304569837 
0.014102028674628866 0.01505115801673602 26.0832656195488 
-1.226164330305994 -4.015569007704553 26.08118530457682 
0.5782162723601458 -2.4143226058823593 26.083205274944874 
2.3754571059584624 -0.8020660043026063 26.082929627122013 
-10.106128820349127 -3.1755178274265483 26.083704899087262 
2.9383401313417337 -3.2319502933776905 26.084489069959144 
4.73549607729199 -1.6200779251997532 26.08508636102575 
-7.744588368668299 -3.9930277957154154 26.08560920864685 
7.0968142457971775 -2.4371979278186515 26.085338926292106 
-5.384817077412317 -4.810172074846864 26.085142091265446 
-3.0234450314254033 -5.627797286666318 26.081671229768304 
-0.2573182789222397 -5.09448348639258 26.071746261759905 
-7.339276387488951 -2.6417693055466267 26.074061158857756 
3.9054384621320795 -4.30165079648846 26.075996915209785 
-4.978725958331089 -3.458987999662055 26.073231086823288 
-3.176545681047255 -1.8490753519279084 26.074217261232473 
8.065171196550445 -3.5151401609828765 26.074220356713557 
-2.617917336367584 -4.276437238111298 26.07189910459935 
-0.8163008362444102 -2.666762566821014 26.071799984947415 
0.9845088362296055 -1.063235663194352 26.072431516476332 
-11.499463620918833 -3.427206277349697 26.071848636181617 
1.5448196748506602 -3.4839905368975588 26.07335599752047 
3.344023186278454 -1.8801828229352064 26.073952150605393 
-9.138427604933256 -4.245003272060467 26.075906904541103 
5.706024796601315 -2.6977185942718247 26.074681174776508 
-6.7781795596758645 -5.062149916151839 26.07515219275725 
-4.417276417249551 -5.879457893047054 26.073614610777163 
1.1059964338441475 -4.836391861262511 22.635126918913322 
-5.970714020057073 -2.385564999066353 22.652942506160738 
5.261630501075437 -4.044469662315561 22.6519967577743 
-3.6117569346742857 -3.2004167854150265 22.65077182649636 
-1.8125953411900333 -1.597742005378936 22.631675879700023 
-0.011118207254281798 0.008625630110940462 22.652779184501775 
-1.2519599721070023 -4.019070953999202 22.626935592094817 
0.543834709063959 -2.41174560412067 22.641478104175075 
2.3469138081029346 -0.8029079391137549 22.629040518711342 
-10.139355938002813 -3.1693962971117013 22.642845097186814 
2.909566872645493 -3.2291984380391807 22.643582804318477 
4.710013286159875 -1.6260949152372064 22.65522385805959 
-7.776715720292286 -3.992066195587321 22.649225532612885 
7.0700717536477695 -2.4385788474803323 22.655642952637763 
-5.420646884724966 -4.804771628303181 22.64663659213923 
-3.0527644318858664 -5.6290705616888665 22.62585106373751 
-1.6631934505816526 -5.36701408588875 22.63588350216293 
-8.74680400459342 -2.9202813815882753 22.653570125523384 
2.5005744887410684 -4.583445124942495 22.655255003804054 
-6.3858697064487995 -3.7331184252512957 22.669069943837357 
-4.5823114156937415 -2.1274692462418825 22.655958049619972 
6.653569856243099 -3.788667551721818 22.66443376215477 
-4.0257558241504565 -4.552066970299599 22.66075602481691 
-2.2176648890323007 -2.9512169842038842 22.636272790846213 
-0.4203157452648416 -1.3407514878905964 22.654058096188056 
-12.904106956162183 -3.7093434974930886 22.645107801892188 
0.136398446972251 -3.7620769621909584 22.65368826796045 
1.9356800095324926 -2.152526610627376 22.642925978890844 
-10.5459429894456 -4.522993704209219 22.66002334634994 
4.30058751091879 -2.9772363541908877 22.6699451596914 
-8.18472462369444 -5.342486267920381 22.662766212666465 
-5.820825843903263 -6.160378949250974 22.655619595842452 
