SAMBA Cr_S_Br_Cr_S_Br+B_N_C 60 96 | mism
   1.00000000000000
   -14.2848791339220007   -3.9742969419600001    0.0000000000000000
     9.4427924565130006   -3.2698878045819999    0.0000000000000000
     0.0000000000000000    0.0000000000000000   36.7872736853993203
   Cr   S    Br   Cr   S    Br   B    N    C
    10    10    10    10    10    10    16    16    64
Direct
  0.7216418491804446  0.7802683482026536  0.2516312833563739
  0.8780309470996506  0.5454705386439342  0.2511596859072942
  0.1111380607560886  0.4413657730432700  0.2513060512004112
  0.2765097309695088  0.2174534553398188  0.2517542343481489
  0.5105635207818731  0.0177519789218137  0.2525668139196751
  0.2253184987993928  0.7866933980797632  0.2879959901801953
  0.3907856066959419  0.5616426437040741  0.2878519793933106
  0.6179996895812080  0.4466305434829267  0.2875036486401972
  0.7789952219626167  0.2195374164256177  0.2879620662815833
 -0.0044538782946559 -0.0064578187980475  0.2875020405916372
  0.0951535901644982  0.8972029098112618  0.2882517248411755
  0.3128666673711351  0.6941493382816437  0.2936876842174231
  0.4985661142645004  0.4974040864765907  0.2870271532003814
  0.6892611461684213  0.3074430377809068  0.2965197950688825
  0.9045900820889426  0.1024314857997449  0.2882109282086890
  0.5986753383078536  0.9037518612174892  0.2510931235693188
  0.8115194383773044  0.6924898577166017  0.2433884997236462
  0.0026828488200672  0.5061183651633484  0.2539463140472442
  0.1907241763429654  0.3119930445401586  0.2453260325189788
  0.4035232082846536  0.1012320374846992  0.2510439349314766
  0.1026994711430902  0.9049883751625564  0.2040932664389696
  0.3039545381493547  0.7203274849387065  0.2008364608629013
  0.4995099832483352  0.5007117490930835  0.2047376189209838
  0.6973925480312552  0.2808085654332395  0.2002427508940794
  0.8969195994105555  0.0957974755125581  0.2037420428060845
  0.6049422068244550  0.9086737679887940  0.3361771624578482
  0.8056185366055998  0.7175815765423890  0.3385161797860979
  0.0012603620743749  0.5005167719723704  0.3357567474228698
  0.1965812799052423  0.2864453431523405  0.3381585373473621
  0.3965065732195256  0.0929063396202327  0.3366371894870163
  0.7402093103203246  0.8246406682319410  0.4404442078548286
  0.9302128414416627  0.6361301859765187  0.4415608909180711
  0.0862331559107781  0.3493852526274828  0.4415587811046937
  0.2738060214345500  0.1468333839622619  0.4423153110409600
  0.5161445321416231 -0.0143991439957963  0.4433083352650889
  0.1950872598867735  0.8020974223614233  0.4773120304823328
  0.3872616559428482  0.6177955073447737  0.4778963562653214
  0.6268646192150717  0.4689094818973356  0.4768978510971592
  0.7713410375833726  0.2012330536358750  0.4776176849002763
 -0.0221142035750197 -0.0173649743992196  0.4781093270834843
  0.0975599164615978  0.8939479004060608  0.4883350330439605
  0.2983974422811094  0.7150327284620741  0.4797534016193755
  0.5154584644916244  0.5198312257802414  0.4780177542491482
  0.6818628657513099  0.2986274029428298  0.4820923308698185
  0.9023835524101076  0.0998990514758611  0.4859644813962590
  0.6022614019436119  0.8786730680755007  0.4392221362458599
  0.8162087179891493  0.7092675648108232  0.4331381399932660
 -0.0146504946929190  0.4806972722474742  0.4428112562940660
  0.2096094154442836  0.3023790868061400  0.4397540742599366
  0.4069983870753677  0.1135439597265965  0.4420641475978281
  0.1068432471018804  0.8998933023090727  0.3916351501995338
  0.2993078045208242  0.6965797482716508  0.3955442474039648
  0.5023951433617486  0.5003813344792541  0.3948086615902770
  0.6985672929060348  0.2960351091904697  0.3953724849878398
  0.9039927199832837  0.1067655093040407  0.3913378579558012
  0.5983001545981618  0.8967935174442134  0.5263936189343229
  0.7983650317503307  0.7007077158948287  0.5290485779056481
 -0.0078039585823519  0.4857868758203993  0.5270204564302385
  0.2083263128146777  0.3094188773571386  0.5256573678929680
  0.4008374459484401  0.1058022085173863  0.5265285957816583
  0.5006223036634192  0.8757500159280999  0.7943247228369859
  0.5006307334587667  0.1257541499566812  0.7943589001517535
  0.2507102349686565  0.9384027081398785  0.7943316265677822
  0.5006310807988672  0.3757657806135819  0.7943368453157792
  0.2507082006785298  0.1883992889932493  0.7942981764990794
  0.0006318981597655  0.0007588479200809  0.7943241768528714
  0.5006252388256651  0.6257465850528531  0.7943034314107673
  0.2507046688057714  0.4383992147569999  0.7942735926348659
  0.0006222071422073  0.2507490244306992  0.7943223163494815
  0.7507111466571004  0.0634041056028033  0.7942820591494927
  0.2507114710379951  0.6884051865435817  0.7943126132855497
  0.0006271503489474  0.5007538894060329  0.7943603406039740
  0.7507075674623112  0.3134017615669871  0.7943167076832258
  0.0006269154597255  0.7507553003176113  0.7943667088472213
  0.7507091652404232  0.5633972907940787  0.7943088478502994
  0.7507057118849157  0.8134050461169978  0.7942735244789032
  0.6684140373659598  0.8366788726008484  0.7942134873816685
  0.6684166049678757  0.0866780759709871  0.7942437380492448
  0.4184434290255166  0.8992080827412366  0.7942683500339074
  0.6684142771241729  0.3366729390409923  0.7942748141885899
  0.4184519576243307  0.1492127961973760  0.7942785044238868
  0.1684172502371658  0.9616829308842232  0.7942817684839623
  0.6684221769252112  0.5866890131525866  0.7942404125741200
  0.4184395851206344  0.3992036013660841  0.7942401288117537
  0.1684206696817144  0.2116810999434149  0.7942280749613371
  0.9184404916236286  0.0242031964723786  0.7942300418123999
  0.4184432851495228  0.6492002856806932  0.7942207448885600
  0.1684140527027088  0.4616810881242583  0.7942387485161012
  0.9184427798943923  0.2742020484794865  0.7942529935471195
  0.1684200102448078  0.7116759941011376  0.7942852481003603
  0.9184440091601073  0.5242068021089763  0.7942892489787721
  0.9184454708590701  0.7742061726177953  0.7942654319392062
  0.4976646295180246  0.8730505491841073  0.7090267754697908
  0.4977526568253313  0.1231151574878945  0.7090556177738053
  0.2482408268730405  0.9367486848944074  0.7091504876062786
  0.4977099459146689  0.3730449421133281  0.7090113021576251
  0.2482181309510011  0.1866689788743086  0.7090148421640299
 -0.0022345745331048 -0.0018870051977287  0.7090295911192004
  0.4977254782625877  0.6230978808064722  0.7089730412647651
  0.2481913434209201  0.4366928145677433  0.7090279507529030
 -0.0022998463354743  0.2480838258193262  0.7090204577316691
  0.7482532105384798  0.0616955054815725  0.7090415321926874
  0.2482310917471392  0.6866921309658451  0.7090628485554760
 -0.0022137318776709  0.4981442943543821  0.7090790849058973
  0.7482247750397163  0.3117416930782645  0.7090932976367883
 -0.0022772526033202  0.7481138656954038  0.7090859504667573
  0.7482240208467893  0.5616424007946109  0.7090805998384845
  0.7482150407057747  0.8117001857805859  0.7089862503216700
  0.5810597594001258  0.8517660629241940  0.7087164568030396
  0.5810210298824898  0.1017219009178566  0.7087793833769861
  0.3306003640997106  0.9137153807691731  0.7088320036491101
  0.5809983734693902  0.3516719867536625  0.7087568192684967
  0.3305781969573338  0.1636935169248567  0.7087836267568041
  0.0809670291121208  0.9765941021915903  0.7087837109022374
  0.5809915378764884  0.6016733488737032  0.7087206115778879
  0.3306199217547942  0.4137086357960869  0.7087179171772976
  0.0809687647166092  0.2267483759375145  0.7087350842969465
  0.8305516537386396  0.0386396681804660  0.7087192396790578
  0.3305761762336520  0.6636871906021701  0.7087602147551600
  0.0809558879238445  0.4766035345133302  0.7087764201714685
  0.8305749734770805  0.2887107299458793  0.7088295568608689
  0.0809124440204105  0.7266758547817356  0.7087962374641917
  0.8305559781966267  0.5386343315542405  0.7088090412937109
  0.8305296387362856  0.7886161983896973  0.7087672447204384
  0.4992088372655103  0.8723197480726456  0.6152977552097613
  0.4991779701504338  0.1228432113911727  0.6157820419062904
  0.2491279856743182  0.9340874223309665  0.6157563333312400
  0.4989518416779188  0.3723167520130839  0.6157230356400761
  0.2494601779051430  0.1854232375618880  0.6152039445283062
 -0.0005353228164330 -0.0019872542016652  0.6157776022824042
  0.4991193436270440  0.6224747130763872  0.6150750878034034
  0.2492370630436765  0.4346337218823237  0.6154704014709674
 -0.0010975017834796  0.2468799498149232  0.6151323066838925
  0.7488567903609640  0.0590898088134376  0.6155075608708030
  0.2490395130628655  0.6848679822311218  0.6155276141951666
 -0.0005500840159218  0.4979623796809915  0.6158440566105700
  0.7493640729102058  0.3100628868014650  0.6156810022484011
 -0.0010843919732707  0.7470863494950616  0.6158554489899498
  0.7490094600725806  0.5590361905005147  0.6156106262674085
  0.7494958628107296  0.8105328391985349  0.6150456067288725
  0.6661813053876253  0.8316529262212472  0.6153183216495599
  0.6668772187771960  0.0825451227901623  0.6157991026802965
  0.4167210856626501  0.8952208648997900  0.6158449032551115
  0.6663484960374528  0.3317702930509817  0.6162204391034989
  0.4163527470459011  0.1445798220410645  0.6158640143700566
  0.1664225844994907  0.9563798423573676  0.6160944123225464
  0.6665366945289736  0.5819931255324052  0.6159944392348609
  0.4169029721110429  0.3958303325377821  0.6153289038059494
  0.1666083538777610  0.2075301836406491  0.6158123673399406
  0.9167022475768535  0.0202137083015269  0.6155690686825731
  0.4164193387113052  0.6443960721909143  0.6158023141832221
  0.1661522937573096  0.4563422804773609  0.6155097595035346
  0.9163722133243289  0.2694460702482269  0.6159745226062672
  0.1668002255674988  0.7077682373556502  0.6162442303705965
  0.9165785213491872  0.5198132642576616  0.6160490828017299
  0.9165014430953485  0.7700356150222957  0.6158548140748563