&BANDS
    prefix = '__prefix__'
    outdir = '/home/demo/data/demo-default/band-structure-Py5xwkYHJGC89suoG/outdir'
    filband = '/home/demo/data/demo-default/band-structure-Py5xwkYHJGC89suoG/bands.dat'
    no_overlap = .true.
/
