&PROJWFC
    prefix = '__prefix__'
    outdir = '/home/demo/data/demo-default/band-structure-Py5xwkYHJGC89suoG/outdir'
    degauss = 0.01
    deltaE = 0.05
/
