Silicon FCC                             
   1.0000000000000000     
     3.3489200000000001    0.0000000000000000    1.9335000000000000
     1.1163069999999999    3.1573920000000002    1.9335000000000000
     0.0000000000000000    0.0000000000000000    3.8670000000000000
   Si
     2
Direct
  0.0000000000000000  0.0000000000000000  0.0000000000000000
  0.2500000000000000  0.2500000000000000  0.2500000000000000

  0.00000000E+00  0.00000000E+00  0.00000000E+00
  0.00000000E+00  0.00000000E+00  0.00000000E+00
