ISMEAR = 0
SIGMA = 0.05
ISTART = 1
ICHARG = 11