ISMEAR = 0
SIGMA = 0.05
ISTART = 1
LWAVE = .FALSE.
LHFCALC = .TRUE.
HFSCREEN = 0.2
ALGO = NORMAL
TIME = 0.2
LMAXMIX = 4