ISMEAR = 0
SIGMA  = 0.05
LORBIT = 11
# To avoid errors with high precision structures: "internal error in subroutine SGRCON"
SYMPREC = 1e-6
