Automatic Mesh
0
Gamma
{% raw %}{{PARAMETER | default('1')}} {{PARAMETER | default('1')}} {{PARAMETER | default('1')}}{% endraw %}
0 0 0
